* ENCODING=ISO-8859-1
NAME          ./miplib3/enigma
ROWS
 N  OBJECT  
 E  SOS0    
 E  SOS1    
 E  SOS2    
 E  SOS3    
 E  SOS4    
 E  SOS5    
 E  SOS6    
 E  SOS7    
 E  SOS8    
 E  SOS9    
 E  BILANCIO
 E  SOSA    
 E  SOSB    
 E  SOSC    
 E  SOSD    
 E  SOSE    
 E  SOSF    
 E  SOSG    
 E  SOSH    
 E  SOSI    
 E  SOSL    
COLUMNS
    MARK0000  'MARKER'                 'INTORG'
    A0        SOS0                            1
    A0        SOSA                            1
    A1        OBJECT                          1
    A1        SOS1                            1
    A1        BILANCIO                      202
    A1        SOSA                            1
    A2        OBJECT                          2
    A2        SOS2                            1
    A2        BILANCIO                      404
    A2        SOSA                            1
    A3        OBJECT                          3
    A3        SOS3                            1
    A3        BILANCIO                      606
    A3        SOSA                            1
    A4        OBJECT                          4
    A4        SOS4                            1
    A4        BILANCIO                      808
    A4        SOSA                            1
    A5        OBJECT                          5
    A5        SOS5                            1
    A5        BILANCIO                     1010
    A5        SOSA                            1
    A6        OBJECT                          6
    A6        SOS6                            1
    A6        BILANCIO                     1212
    A6        SOSA                            1
    A7        OBJECT                          7
    A7        SOS7                            1
    A7        BILANCIO                     1414
    A7        SOSA                            1
    A8        OBJECT                          8
    A8        SOS8                            1
    A8        BILANCIO                     1616
    A8        SOSA                            1
    A9        OBJECT                          9
    A9        SOS9                            1
    A9        BILANCIO                     1818
    B0        SOS0                            1
    B0        SOSB                            1
    B1        SOS1                            1
    B1        BILANCIO                      -79
    B1        SOSB                            1
    B2        SOS2                            1
    B2        BILANCIO                     -158
    B2        SOSB                            1
    B3        SOS3                            1
    B3        BILANCIO                     -237
    B3        SOSB                            1
    B4        SOS4                            1
    B4        BILANCIO                     -316
    B4        SOSB                            1
    B5        SOS5                            1
    B5        BILANCIO                     -395
    B5        SOSB                            1
    B6        SOS6                            1
    B6        BILANCIO                     -474
    B6        SOSB                            1
    B7        SOS7                            1
    B7        BILANCIO                     -553
    B7        SOSB                            1
    B8        SOS8                            1
    B8        BILANCIO                     -632
    B8        SOSB                            1
    B9        SOS9                            1
    B9        BILANCIO                     -711
    B9        SOSB                            1
    C0        SOS0                            1
    C0        SOSC                            1
    C1        SOS1                            1
    C1        BILANCIO                   100023
    C1        SOSC                            1
    C2        SOS2                            1
    C2        BILANCIO                   200046
    C2        SOSC                            1
    C3        SOS3                            1
    C3        BILANCIO                   300069
    C3        SOSC                            1
    C4        SOS4                            1
    C4        BILANCIO                   400092
    C4        SOSC                            1
    C5        SOS5                            1
    C5        BILANCIO                   500115
    C5        SOSC                            1
    C6        SOS6                            1
    C6        BILANCIO                   600138
    C6        SOSC                            1
    C7        SOS7                            1
    C7        BILANCIO                   700161
    C7        SOSC                            1
    C8        SOS8                            1
    C8        BILANCIO                   800184
    C8        SOSC                            1
    C9        SOS9                            1
    C9        BILANCIO                   900207
    C9        SOSC                            1
    D0        SOS0                            1
    D0        SOSD                            1
    D1        SOS1                            1
    D1        BILANCIO                   -89810
    D1        SOSD                            1
    D2        SOS2                            1
    D2        BILANCIO                  -179620
    D2        SOSD                            1
    D3        SOS3                            1
    D3        BILANCIO                  -269430
    D3        SOSD                            1
    D4        SOS4                            1
    D4        BILANCIO                  -359240
    D4        SOSD                            1
    D5        SOS5                            1
    D5        BILANCIO                  -449050
    D5        SOSD                            1
    D6        SOS6                            1
    D6        BILANCIO                  -538860
    D6        SOSD                            1
    D7        SOS7                            1
    D7        BILANCIO                  -628670
    D7        SOSD                            1
    D8        SOS8                            1
    D8        BILANCIO                  -718480
    D8        SOSD                            1
    D9        SOS9                            1
    D9        BILANCIO                  -808290
    D9        SOSD                            1
    E0        SOS0                            1
    E0        SOSE                            1
    E1        SOS1                            1
    E1        BILANCIO                    -9980
    E1        SOSE                            1
    E2        SOS2                            1
    E2        BILANCIO                   -19960
    E2        SOSE                            1
    E3        SOS3                            1
    E3        BILANCIO                   -29940
    E3        SOSE                            1
    E4        SOS4                            1
    E4        BILANCIO                   -39920
    E4        SOSE                            1
    E5        SOS5                            1
    E5        BILANCIO                   -49900
    E5        SOSE                            1
    E6        SOS6                            1
    E6        BILANCIO                   -59880
    E6        SOSE                            1
    E7        SOS7                            1
    E7        BILANCIO                   -69860
    E7        SOSE                            1
    E8        SOS8                            1
    E8        BILANCIO                   -79840
    E8        SOSE                            1
    E9        SOS9                            1
    E9        BILANCIO                   -89820
    E9        SOSE                            1
    F0        SOS0                            1
    F0        SOSF                            1
    F1        SOS1                            1
    F1        BILANCIO                     1000
    F1        SOSF                            1
    F2        SOS2                            1
    F2        BILANCIO                     2000
    F2        SOSF                            1
    F3        SOS3                            1
    F3        BILANCIO                     3000
    F3        SOSF                            1
    F4        SOS4                            1
    F4        BILANCIO                     4000
    F4        SOSF                            1
    F5        SOS5                            1
    F5        BILANCIO                     5000
    F5        SOSF                            1
    F6        SOS6                            1
    F6        BILANCIO                     6000
    F6        SOSF                            1
    F7        SOS7                            1
    F7        BILANCIO                     7000
    F7        SOSF                            1
    F8        SOS8                            1
    F8        BILANCIO                     8000
    F8        SOSF                            1
    F9        SOS9                            1
    F9        BILANCIO                     9000
    F9        SOSF                            1
    G0        SOS0                            1
    G0        SOSG                            1
    G1        SOS1                            1
    G1        BILANCIO                      100
    G1        SOSG                            1
    G2        SOS2                            1
    G2        BILANCIO                      200
    G2        SOSG                            1
    G3        SOS3                            1
    G3        BILANCIO                      300
    G3        SOSG                            1
    G4        SOS4                            1
    G4        BILANCIO                      400
    G4        SOSG                            1
    G5        SOS5                            1
    G5        BILANCIO                      500
    G5        SOSG                            1
    G6        SOS6                            1
    G6        BILANCIO                      600
    G6        SOSG                            1
    G7        SOS7                            1
    G7        BILANCIO                      700
    G7        SOSG                            1
    G8        SOS8                            1
    G8        BILANCIO                      800
    G8        SOSG                            1
    G9        SOS9                            1
    G9        BILANCIO                      900
    G9        SOSG                            1
    H0        SOS0                            1
    H0        SOSH                            1
    H1        SOS1                            1
    H1        BILANCIO                    10000
    H1        SOSH                            1
    H2        SOS2                            1
    H2        BILANCIO                    20000
    H2        SOSH                            1
    H3        SOS3                            1
    H3        BILANCIO                    30000
    H3        SOSH                            1
    H4        SOS4                            1
    H4        BILANCIO                    40000
    H4        SOSH                            1
    H5        SOS5                            1
    H5        BILANCIO                    50000
    H5        SOSH                            1
    H6        SOS6                            1
    H6        BILANCIO                    60000
    H6        SOSH                            1
    H7        SOS7                            1
    H7        BILANCIO                    70000
    H7        SOSH                            1
    H8        SOS8                            1
    H8        BILANCIO                    80000
    H8        SOSH                            1
    H9        SOS9                            1
    H9        BILANCIO                    90000
    H9        SOSH                            1
    I0        SOS0                            1
    I0        SOSI                            1
    I1        SOS1                            1
    I1        BILANCIO                      100
    I1        SOSI                            1
    I2        SOS2                            1
    I2        BILANCIO                      200
    I2        SOSI                            1
    I3        SOS3                            1
    I3        BILANCIO                      300
    I3        SOSI                            1
    I4        SOS4                            1
    I4        BILANCIO                      400
    I4        SOSI                            1
    I5        SOS5                            1
    I5        BILANCIO                      500
    I5        SOSI                            1
    I6        SOS6                            1
    I6        BILANCIO                      600
    I6        SOSI                            1
    I7        SOS7                            1
    I7        BILANCIO                      700
    I7        SOSI                            1
    I8        SOS8                            1
    I8        BILANCIO                      800
    I8        SOSI                            1
    I9        SOS9                            1
    I9        BILANCIO                      900
    I9        SOSI                            1
    L0        SOS0                            1
    L0        SOSL                            1
    L1        SOS1                            1
    L1        BILANCIO                       -1
    L1        SOSL                            1
    L2        SOS2                            1
    L2        BILANCIO                       -2
    L2        SOSL                            1
    L3        SOS3                            1
    L3        BILANCIO                       -3
    L3        SOSL                            1
    L4        SOS4                            1
    L4        BILANCIO                       -4
    L4        SOSL                            1
    L5        SOS5                            1
    L5        BILANCIO                       -5
    L5        SOSL                            1
    L6        SOS6                            1
    L6        BILANCIO                       -6
    L6        SOSL                            1
    L7        SOS7                            1
    L7        BILANCIO                       -7
    L7        SOSL                            1
    L8        SOS8                            1
    L8        BILANCIO                       -8
    L8        SOSL                            1
    L9        SOS9                            1
    L9        BILANCIO                       -9
    L9        SOSL                            1
    MARK0001  'MARKER'                 'INTEND'
RHS
    rhs       SOS0                            1
    rhs       SOS1                            1
    rhs       SOS2                            1
    rhs       SOS3                            1
    rhs       SOS4                            1
    rhs       SOS5                            1
    rhs       SOS6                            1
    rhs       SOS7                            1
    rhs       SOS8                            1
    rhs       SOS9                            1
    rhs       SOSA                            1
    rhs       SOSB                            1
    rhs       SOSC                            1
    rhs       SOSD                            1
    rhs       SOSE                            1
    rhs       SOSF                            1
    rhs       SOSG                            1
    rhs       SOSH                            1
    rhs       SOSI                            1
    rhs       SOSL                            1
BOUNDS
 UP bnd       A0                              1
 UP bnd       A1                              1
 UP bnd       A2                              1
 UP bnd       A3                              1
 UP bnd       A4                              1
 UP bnd       A5                              1
 UP bnd       A6                              1
 UP bnd       A7                              1
 UP bnd       A8                              1
 UP bnd       A9                              1
 UP bnd       B0                              1
 UP bnd       B1                              1
 UP bnd       B2                              1
 UP bnd       B3                              1
 UP bnd       B4                              1
 UP bnd       B5                              1
 UP bnd       B6                              1
 UP bnd       B7                              1
 UP bnd       B8                              1
 UP bnd       B9                              1
 UP bnd       C0                              1
 UP bnd       C1                              1
 UP bnd       C2                              1
 UP bnd       C3                              1
 UP bnd       C4                              1
 UP bnd       C5                              1
 UP bnd       C6                              1
 UP bnd       C7                              1
 UP bnd       C8                              1
 UP bnd       C9                              1
 UP bnd       D0                              1
 UP bnd       D1                              1
 UP bnd       D2                              1
 UP bnd       D3                              1
 UP bnd       D4                              1
 UP bnd       D5                              1
 UP bnd       D6                              1
 UP bnd       D7                              1
 UP bnd       D8                              1
 UP bnd       D9                              1
 UP bnd       E0                              1
 UP bnd       E1                              1
 UP bnd       E2                              1
 UP bnd       E3                              1
 UP bnd       E4                              1
 UP bnd       E5                              1
 UP bnd       E6                              1
 UP bnd       E7                              1
 UP bnd       E8                              1
 UP bnd       E9                              1
 UP bnd       F0                              1
 UP bnd       F1                              1
 UP bnd       F2                              1
 UP bnd       F3                              1
 UP bnd       F4                              1
 UP bnd       F5                              1
 UP bnd       F6                              1
 UP bnd       F7                              1
 UP bnd       F8                              1
 UP bnd       F9                              1
 UP bnd       G0                              1
 UP bnd       G1                              1
 UP bnd       G2                              1
 UP bnd       G3                              1
 UP bnd       G4                              1
 UP bnd       G5                              1
 UP bnd       G6                              1
 UP bnd       G7                              1
 UP bnd       G8                              1
 UP bnd       G9                              1
 UP bnd       H0                              1
 UP bnd       H1                              1
 UP bnd       H2                              1
 UP bnd       H3                              1
 UP bnd       H4                              1
 UP bnd       H5                              1
 UP bnd       H6                              1
 UP bnd       H7                              1
 UP bnd       H8                              1
 UP bnd       H9                              1
 UP bnd       I0                              1
 UP bnd       I1                              1
 UP bnd       I2                              1
 UP bnd       I3                              1
 UP bnd       I4                              1
 UP bnd       I5                              1
 UP bnd       I6                              1
 UP bnd       I7                              1
 UP bnd       I8                              1
 UP bnd       I9                              1
 UP bnd       L0                              1
 UP bnd       L1                              1
 UP bnd       L2                              1
 UP bnd       L3                              1
 UP bnd       L4                              1
 UP bnd       L5                              1
 UP bnd       L6                              1
 UP bnd       L7                              1
 UP bnd       L8                              1
 UP bnd       L9                              1
ENDATA
